%%% static parameters %%%
timespan = 1;
Clients_N = [4000];
Demand_W = [15];
Lt0 = [4];
Lt1 = [4];
SS_ = [0.85];
DS_D = [20];
K = [200];
MA = [500];
HC = [0.05];
%%% dynamic parameters %%%
lost_ratio_sales_ret_th = 0.0009514593748610076;
lost_ratio_sales_ret_w = 2;
lost_ratio_sales_dis_th = 0.0005992899977389204;
lost_ratio_sales_dis_w = 27;
lost_ratio_sales_fac_th = 0.0007009962138267507;
lost_ratio_sales_fac_w = 18;
stock_customer_MA_mean_relative_th = 0.01991691532745965;
stock_customer_MA_mean_relative_w = 82;
stock_distributor_MA_mean_relative_th = 0.3381262585961228;
stock_distributor_MA_mean_relative_w = 4;
stock_retailer_MA_mean_relative_th = 0.20594809616263898;
stock_retailer_MA_mean_relative_w = 37;
stock_factory_MA_mean_relative_th = 0.3325717318168926;
stock_factory_MA_mean_relative_w = 82;
